2025-09-10 
2025-09-20 A組
2025-10-01 
2025-10-02 
2025-10-07 
2025-10-18 A組
2025-10-29 
2025-11-08 A組
2025-11-22 A組
2025-12-15 
2025-12-20 
2025-12-21 
2025-12-22 
2025-12-23 
2025-12-24 
2025-12-25 
2025-12-26 
2025-12-27 
2025-12-28 
2025-12-29 
2025-12-30 
2025-12-31 
2026-01-01 
2026-01-10 A組
2026-01-24 A組
2026-02-14 
2026-02-15 
2026-02-16 
2026-02-17 
2026-02-18 
2026-02-19 
2026-02-20 
2026-02-21 
2026-02-22 
2026-02-23 
2026-02-24 
2026-02-25 
2026-02-26 
2026-02-27 
2026-03-08 
2026-03-21 A組
2026-04-02 
2026-04-03 
2026-04-04 
2026-04-04 
2026-04-05 
2026-04-06 
2026-04-07 
2026-04-18 A組
2026-05-01 
2026-05-09 A組
2026-05-23 A組
2026-06-06 A組
2026-06-19 
2026-06-20 A組
2026-07-24 
2026-07-28 
2026-07-29 